SPARKNaCl/why3-z3/sparknacl-sign.adb_925_30_range_check3_1.smt2
;; produced by z3_gnatprove.drv ;;
(set-info :smt-lib-version 2.5)
(set-info :source |VC generated by SPARK 2014|)
(set-info :category industrial)
(set-info :status unknown)
;;; generated by SMT-LIB2 driver
;;; SMT-LIB2 driver: bit-vectors, common part
;;; SMT-LIB2: integer arithmetic
;; "length"
(define-fun length ((x Int) (y Int)) Int
  (ite (<= x y) (+ (- y x) 1) 0))

(declare-sort tinteger_32B 0)

;; "tinteger_32B'int"
(declare-fun tinteger_32Bqtint (tinteger_32B) Int)

;; "tinteger_32B'axiom"
(assert
  (forall ((i tinteger_32B))
    (and
      (<= (- 2147483648) (tinteger_32Bqtint i))
      (<= (tinteger_32Bqtint i) 2147483647))))

;; "in_range"
(define-fun in_range ((x Int)) Bool
  (and (<= (- 2147483648) x) (<= x 2147483647)))

;; "to_rep"
(define-fun to_rep ((x tinteger_32B)) Int
  (tinteger_32Bqtint x))

;; "of_rep"
(declare-fun of_rep (Int) tinteger_32B)

;; "inversion_axiom"
(assert
  (forall ((x tinteger_32B))
    (! (= (of_rep (to_rep x)) x) :pattern ((to_rep x)) )))

;; "range_axiom"
(assert
  (forall ((x tinteger_32B))
    (! (in_range (to_rep x)) :pattern ((to_rep x)) )))

;; "coerce_axiom"
(assert
  (forall ((x Int))
    (! (=> (in_range x) (= (to_rep (of_rep x)) x)) :pattern ((to_rep
                                                               (of_rep x))) )))

;; "in_range"
(define-fun in_range1 ((x Int)) Bool
  (and (<= 0 x) (<= x 2147483647)))

(declare-sort byte 0)

;; "to_rep"
(declare-fun to_rep1 (byte) (_ BitVec 8))

;; "of_rep"
(declare-fun of_rep1 ((_ BitVec 8)) byte)

;; "inversion_axiom"
(assert
  (forall ((x byte)) (! (= (of_rep1 (to_rep1 x)) x) :pattern ((to_rep1 x)) )))

;; "range_axiom"
(assert true)

;; "coerce_axiom"
(assert
  (forall ((x (_ BitVec 8)))
    (! (= (to_rep1 (of_rep1 x)) x) :pattern ((to_rep1 (of_rep1 x))) )))

(declare-sort map1 0)

(declare-datatypes ()
  ((map__ref (map__refqtmk (map__content map1)))))

;; "has_bounds"
(declare-fun has_bounds (map1
  Int
  Int) Bool)

;; "get"
(declare-fun get (map1
  Int) byte)

(declare-datatypes ()
  ((t (tqtmk (rec__first tinteger_32B)(rec__last tinteger_32B)))))

;; "dynamic_property"
(define-fun dynamic_property ((range_first Int) (range_last Int) (low Int) (high Int)) Bool
  (and
    (in_range low)
    (and
      (in_range high)
      (=> (<= low high) (and (in_range1 low) (in_range1 high))))))

(declare-datatypes ()
  ((us_t (us_tqtmk (elts map1)(rt t)))))

;; "first"
(define-fun first ((a us_t)) Int
  (to_rep (rec__first (rt a))))

;; "last"
(define-fun last ((a us_t)) Int
  (to_rep (rec__last (rt a))))

;; "length"
(define-fun length1 ((a us_t)) Int
  (ite (<= (first a) (last a)) (+ (- (last a) (first a)) 1) 0))

;; "well_formed"
(define-fun well_formed ((a us_t)) Bool
  (has_bounds
    (elts a)
    (to_rep (rec__first (rt a)))
    (to_rep (rec__last (rt a)))))

(declare-const m us_t)

(declare-datatypes ()
  ((byte__init_wrapper
   (byte__init_wrapperqtmk (rec__value byte)(us_attr__init Bool)))))

(declare-sort map2 0)

(declare-datatypes ()
  ((map__ref1 (map__refqtmk1 (map__content1 map2)))))

;; "has_bounds"
(declare-fun has_bounds1 (map2
  Int
  Int) Bool)

;; "get"
(declare-fun get1 (map2
  Int) byte__init_wrapper)

(declare-const x__first tinteger_32B)

(declare-const x__last tinteger_32B)

(declare-const zero_bytes_32 map1)

;; "convert"
(declare-fun convert (map1) map2)

;; "convert__def"
(assert
  (forall ((a map1))
    (let ((b (convert a)))
      (forall ((temp___170 Int))
        (and
          (= (us_attr__init
               (byte__init_wrapperqtmk
                 (of_rep1 (to_rep1 (get a temp___170)))
                 true)) (us_attr__init (get1 b temp___170)))
          (= (to_rep1
               (rec__value
                 (byte__init_wrapperqtmk
                   (of_rep1 (to_rep1 (get a temp___170)))
                   true))) (to_rep1 (rec__value (get1 b temp___170)))))))))

(declare-datatypes ()
  ((t1 (tqtmk1 (rec__first1 tinteger_32B)(rec__last1 tinteger_32B)))))

;; "mk"
(declare-fun mk (Int
  Int) t1)

;; "mk_def"
(assert
  (forall ((f Int) (l Int))
    (! (=>
         (in_range f)
         (=>
           (in_range l)
           (and
             (= (to_rep (rec__first1 (mk f l))) f)
             (= (to_rep (rec__last1 (mk f l))) l)))) :pattern ((mk f l)) )))

(declare-datatypes ()
  ((us_t1 (us_tqtmk1 (elts1 map2)(rt1 t1)))))

;; "to_array"
(define-fun to_array ((a us_t1)) map2
  (elts1 a))

;; "of_array"
(define-fun of_array ((a map2) (f Int) (l Int)) us_t1
  (us_tqtmk1 a (mk f l)))

;; "first"
(define-fun first1 ((a us_t1)) Int
  (to_rep (rec__first1 (rt1 a))))

;; "last"
(define-fun last1 ((a us_t1)) Int
  (to_rep (rec__last1 (rt1 a))))

;; "well_formed"
(define-fun well_formed1 ((a us_t1)) Bool
  (has_bounds1
    (elts1 a)
    (to_rep (rec__first1 (rt1 a)))
    (to_rep (rec__last1 (rt1 a)))))

;; "dynamic_invariant"
(define-fun dynamic_invariant ((temp___expr_486 us_t) (temp___is_init_482 Bool) (temp___skip_constant_483 Bool) (temp___do_toplevel_484 Bool) (temp___do_typ_inv_485 Bool)) Bool
  (and
    (=>
      (not (= temp___skip_constant_483 true))
      (dynamic_property
        0
        2147483647
        (first temp___expr_486)
        (last temp___expr_486)))
    (well_formed temp___expr_486)))

;; "sparknacl__zero_bytes_32__aggregate_def"
(declare-fun sparknacl__zero_bytes_32__aggregate_def ((_ BitVec 8)) map1)

;; "zero_bytes_32__def_axiom"
(assert
  (= zero_bytes_32 (let ((temp___435 (sparknacl__zero_bytes_32__aggregate_def
                                       #x00)))
                     (let ((temp___436 temp___435)) temp___436))))

;; "def_axiom"
(assert
  (forall ((temp___431 (_ BitVec 8)))
    (let ((temp___432 (sparknacl__zero_bytes_32__aggregate_def temp___431)))
      (and
        (has_bounds temp___432 0 31)
        (forall ((temp___433 Int))
          (! (=>
               (and (<= 0 temp___433) (<= temp___433 31))
               (= (to_rep1 (get temp___432 temp___433)) temp___431)) :pattern (
          (get
            temp___432
            temp___433)) ))))))

(declare-const d map1)

(declare-const x map2)

;; "x'unused"
(define-fun xqtunused () map__ref1
  (map__refqtmk1 x))

;; "d'unused"
(define-fun dqtunused () map__ref
  (map__refqtmk d))

;; "Assume"
(assert (dynamic_invariant m true false true true))

;; "Assume"
(assert (has_bounds zero_bytes_32 0 31))

(declare-const temp___2839 map1)

;; "H"
(assert (has_bounds temp___2839 0 31))

;; "H"
(assert
  (forall ((temp___434 Int))
    (! (=>
         (and (<= 0 temp___434) (<= temp___434 31))
         (= (to_rep1 (get temp___2839 temp___434)) #x00)) :pattern ((get
                                                                    temp___2839
                                                                    temp___434)) )))

;; "H"
(assert (= temp___2839 (sparknacl__zero_bytes_32__aggregate_def #x00)))

;; "sparknacl__zero_bytes_32__aggregate_def'result'unused"
(define-fun sparknacl__zero_bytes_32__aggregate_defqtresultqtunused () map1
  temp___2839)

;; "Assume"
(assert (= temp___2839 zero_bytes_32))

;; "Assume"
(assert (has_bounds d 0 63))

;; "Assume"
(assert
  (and
    (dynamic_property 0 2147483647 (to_rep x__first) (to_rep x__last))
    (well_formed1 (of_array x (to_rep x__first) (to_rep x__last)))))

;; "Assume"
(assert (dynamic_invariant m true false true true))

;; "Assume"
(assert
  (and
    (and
      (and (= (first m) 0) (= (to_rep x__first) 0))
      (<= (last m) 2147483583))
    (and
      (= (length (to_rep x__first) (to_rep x__last)) (+ (length1 m) 64))
      (= (to_rep x__last) (+ (last m) 64)))))

(declare-const o Int)

;; "Ensures"
(assert (= (to_rep x__last) o))

;; "to_rep'result'unused"
(define-fun to_repqtresultqtunused () Int
  o)

(declare-const o1 Int)

;; "Ensures"
(assert (= (to_rep x__first) o1))

;; "to_rep'result'unused"
(define-fun to_repqtresultqtunused1 () Int
  o1)

;; "map__content'result'unused"
(define-fun map__contentqtresultqtunused () map2
  x)

;; "temp___2761"
(define-fun temp___2761 () us_t1
  (of_array x o1 o))

;; "of_array'result'unused"
(define-fun of_arrayqtresultqtunused () us_t1
  temp___2761)

;; "temp___2763"
(define-fun temp___2763 () map2
  (convert zero_bytes_32))

;; "convert'result'unused"
(define-fun convertqtresultqtunused () map2
  temp___2763)

(declare-const infix_lseqqtresultqtunused Bool)

;; "H"
(assert (= infix_lseqqtresultqtunused (ite (<= 0 31) true false)))

(declare-const usf us_t1)

;; "H"
(assert true)

;; "H"
(assert (= o1 (first1 usf)))

;; "H"
(assert (= o (last1 usf)))

;; "H"
(assert
  (forall ((temp___2764 Int))
    (ite (and (<= 0 temp___2764) (<= temp___2764 31))
      (= (get1 (to_array usf) temp___2764) (get1 temp___2763 temp___2764))
      (= (get1 (to_array usf) temp___2764) (get1 x temp___2764)))))

;; "any'result'unused"
(define-fun anyqtresultqtunused () us_t1
  usf)

;; "o"
(define-fun o2 () map2
  (to_array usf))

;; "to_array'result'unused"
(define-fun to_arrayqtresultqtunused () map2
  o2)

(declare-const x1 map2)

;; "x'unused"
(define-fun xqtunused1 () map__ref1
  (map__refqtmk1 x1))

;; "H"
(assert (= x1 o2))

(declare-const o3 Int)

;; "Ensures"
(assert (= (to_rep x__last) o3))

;; "to_rep'result'unused"
(define-fun to_repqtresultqtunused2 () Int
  o3)

(declare-const o4 Int)

;; "Ensures"
(assert (= (to_rep x__first) o4))

;; "to_rep'result'unused"
(define-fun to_repqtresultqtunused3 () Int
  o4)

;; "map__content'result'unused"
(define-fun map__contentqtresultqtunused1 () map2
  x1)

;; "temp___2774"
(define-fun temp___2774 () us_t1
  (of_array x1 o4 o3))

;; "of_array'result'unused"
(define-fun of_arrayqtresultqtunused1 () us_t1
  temp___2774)

;; "H"
(assert (<= 32 63))

;; Goal "def'vc"
;; File "sparknacl-sign.adb", line 905, characters 0-0
(assert
  (not (<= 0 63)))

(check-sat)
